param set_len = 22;
param target := 10717762;
param values := [1] 1562423 [2] 984868 [3] 719868 [4] 2055539 [5] 1397487 [6] 808996 [7] 1747420 [8] 973763 [9] 810486 [10] 1971727 [11] 1789442 [12] 747293 [13] 1525942 [14] 108818 [15] 1017258 [16] 1572240 [17] 306635 [18] 1309278 [19] 262458 [20] 875954 [21] 1473568 [22] 68922 ;
